5
44
122
40	23
1	5	6	8	5	8	12	5	4	4	5	2	
2	4	5	8	8	7	12	3	7	3	
3	5	4	5	11	4	6	4	7	3	6	2	
4	1	6	4	
5	5	6	5	21	4	5	3	20	2	6	2	
6	1	20	2	
7	5	11	4	9	4	6	4	9	3	4	2	
8	3	6	10	6	6	6	3	
9	3	5	9	4	9	18	3	
10	5	13	4	5	4	8	3	6	3	5	3	
11	2	12	2	7	2	
12	1	17	3	
13	1	12	5	
14	2	4	9	18	3	
15	1	5	3	
16	2	8	9	6	6	
17	2	5	9	18	2	
18	2	23	3	10	3	
19	2	6	7	21	4	
20	1	9	4	
21	5	8	8	12	4	10	4	14	2	4	2	
22	5	6	6	10	5	5	5	17	3	9	2	
23	3	8	10	4	9	12	5	
24	1	4	4	
25	3	7	10	12	5	9	4	
26	2	4	9	16	3	
27	1	7	5	
28	1	10	3	
29	5	21	4	20	4	12	4	5	4	5	2	
30	5	5	9	10	4	9	3	5	3	8	2	
31	1	6	3	
32	3	7	6	18	3	6	3	
33	3	6	12	8	6	8	3	
34	5	7	6	8	4	22	3	10	3	6	3	
35	3	5	5	9	4	19	3	
36	2	8	7	23	3	
37	2	8	5	21	3	
38	2	7	10	7	3	
39	2	8	3	5	3	
40	2	23	4	5	3	
41	2	7	5	15	3	
42	3	20	3	10	3	6	3	
43	5	5	8	9	5	5	5	6	4	5	4	
44	3	5	10	7	5	9	3	
